(declare-fun e () String)
(declare-fun c () String)
(declare-fun b () String)
(declare-fun d () String)
(declare-fun f () String)
(declare-fun h () String)
(assert (= (str.++ c e d "c" b "h") (str.++ d "d")))
(assert (= (str.++ "bdd" h "h") (str.++ h "e" f c "a")))
(assert (= "f" "dbf"))

(check-sat)
